50
    49    50    56    93    90    12    76    34    52    70    70    39    50    51    86    32    92     2    13     4    73    81    81     9    82    66    61    69    96    47    63    71    85    32    39    68     8    43    83    76    15    19    25    81    48    13    41    31    36    96
     6     5     9    10     7     1     1     3     8     9    10     4     2     2     9     3     9     6     4     9     6     2     2     4     9     7     1     6     8    10     2     4     2     8     1     8     7     9     2     5     7     9     4     5     1     7     6     4     8     7
  1518  1137  1501  1182  1084  1135  1616  1889  1990  1438  2045  1419  1693  1372  1946  1349  1797  1138  1390  1859  1176  1386  1117  2101  1321  1186  1784  1087  1592  1845  1596  1252  1376  1701  1927  1903  1713  2056  1767  1717  1083  1973  1214  1761  1277  2088  1239  1601  2122  1524
